100
    1    55    55
    2    56    56
    3    96    96
    4    92    92
    5    46    46
    6    86    86
    7    27    27
    8    82    82
    9     8     8
   10    67    67
   11    65    65
   12    91    91
   13    81    81
   14    19    19
   15    95    95
   16    65    65
   17    93    93
   18    12    12
   19    22    22
   20    92    92
   21    95    95
   22    41    41
   23    79    79
   24     9     9
   25    96    96
   26    41    41
   27    56    56
   28   100   100
   29    28    28
   30    41    41
   31    28    28
   32    94    94
   33    45    45
   34    24    24
   35    88    88
   36    84    84
   37    61    61
   38    32    32
   39    90    90
   40    39    39
   41    77    77
   42    39    39
   43    11    11
   44    85    85
   45    56    56
   46    42    42
   47    14    14
   48    58    58
   49    56    56
   50    35    35
   51    36    36
   52    52    52
   53    78    78
   54    90    90
   55    95    95
   56     5     5
   57     5     5
   58    36    36
   59    87    87
   60    70    70
   61    33    33
   62    35    35
   63     7     7
   64    78    78
   65     7     7
   66    54    54
   67    89    89
   68    45    45
   69   100   100
   70    57    57
   71    37    37
   72    11    11
   73    12    12
   74    15    15
   75    80    80
   76     1     1
   77    56    56
   78    60    60
   79     6     6
   80     5     5
   81    51    51
   82    78    78
   83    77    77
   84    79    79
   85    90    90
   86    71    71
   87    73    73
   88    89    89
   89    39    39
   90    20    20
   91    58    58
   92    61    61
   93     9     9
   94    66    66
   95    29    29
   96     6     6
   97    19    19
   98    78    78
   99    52    52
  100    51    51
4443
